proyfinal/src/viki/013/experimentInOfficeAgust.take6.output/d881adb1-ddc8-49ee-acfe-ea657f945369.als.out
Reading from standard input... Use '--help' for help.
============================[ Problem Statistics ]=============================
|                                                                             |
|  Number of variables:         87638                                         |
|  Number of clauses:          161767                                         |
|  Parse time:                   0.03 s                                       |
|                                                                             |
============================[ Search Statistics ]==============================
| Conflicts |          ORIGINAL         |          LEARNT          | Progress |
|           |    Vars  Clauses Literals |    Limit  Clauses Lit/Cl |          |
===============================================================================
|       100 |   63779   110317   275357 |    40449      100     10 | 27.224 % |
|       250 |   63749   110197   275074 |    44494      248     27 | 27.259 % |
|       475 |   63719   110075   274752 |    48943      455     39 | 27.293 % |
|       812 |   63689   109969   274478 |    53838      791     41 | 27.327 % |
|      1318 |   63689   109969   274478 |    59222     1297     39 | 27.327 % |
|      2077 |   63667   109877   274267 |    65144     1950     36 | 27.352 % |
|      3216 |   63666   109833   274177 |    71658     3086     78 | 27.353 % |
|      4924 |   63666   109833   274177 |    78824     4794     81 | 27.353 % |
|      7486 |   63666   109833   274177 |    86707     7356     87 | 27.354 % |
|     11330 |   63666   109833   274177 |    95377    11200     83 | 27.353 % |
===============================================================================
restarts              : 63
conflicts             : 16666          (6901 /sec)
decisions             : 65338          (0.00 % random) (27055 /sec)
propagations          : 22081832       (9143449 /sec)
conflict literals     : 1488210        (49.59 % deleted)
Memory used           : 40.06 MB
CPU time              : 2.41504 s

INDETERMINATE
